155 161 2 8 146 121 142 127 82 74 24 
157 147 94 100 194 177 47 83 
106 85 113 62 84 90 192 200 128 198 110 
63 44 150 36 171 134 103 101 154 148 105 197 
132 57 173 152 60 19 95 129 164 70 190 
4 41 135 80 64 195 160 116 11 172 28 
72 15 71 166 193 151 32 138 88 183 40 119 108 
87 199 66 165 31 185 156 42 52 75 
1 120 26 123 34 38 114 39 111 174 59 
46 188 184 153 54 109 25 182 186 91 
196 145 5 21 124 169 53 78 
158 16 98 136 189 23 22 96 10 
73 30 35 48 104 6 159 27 61 
112 20 89 125 58 29 65 43 77 
149 67 143 14 176 130 180 167 45 
93 137 68 175 56 33 144 179 107 
81 18 50 139 187 69 170 97 
140 13 12 178 37 141 191 
55 92 162 76 122 126 49 
7 3 86 131 181 9 
115 163 118 102 
168 133 17 
51 99 79 
117 

